903301
198,97,50,41,159,112,208,72,56,75,94,166,78,79,131,114,148,179,120,201,215,99,55,17,53,174,91,52,104,98,189,65,23,218,140,105,127,40,221,76,157,81,1,203,171,167,92,44,211,5,202,37,223,128,145,186,11,102,103,229,212,51,122,24,60,181,147,130,172,135,205,217,194,180,187,123,84,83,28,192,118,69,85,125,113,200,163,64,197,9,190,151,121,176,225,68,22,162,48,70,139,117,31,71,62,6,209,21,195,178,191,36,27,150,107,34,93,19,116,15,184,2,207,158,177,126,206,38,73,156,82,66,146,188,59,137,7,119,96,175,222,210,155,4,43,110,133,18,226,124,45,196,142,10,173,199,153,213,57,138,220,58,32,152,216,141,169,149,170,185,89,108,87,227,3,20,8,67,100,77,101,111,154,132,228,35,136,14,29,109,13,164,193,47,224,46,16,12,219,63,144,143,25,90,95,165,33,49,86,61,54,129,80,39,168,26,214,204,74,160,183,115,106,88,182,0,161,134,42,30,198